  50 
  26  19  27  35  36  40   3   6  34  28  43  35  19  35  44  21  10  47  18  32   3  48   2  42  11   6  22  29   7  22  50  33  12  11  28  27  36  27  36  20  10   3  29  41  24  40  37  11  37  30

 526

  22  17  19   8  17  18  24   8  23  11   4   9  22  24   1  16  20  15  21  12  11  22   1   3  18  10   2  17   3   3   2   9   3   7  15  21  10  18  20   4  21   6  11  12  13   7  14  25  15  15

